number of jobs, number of machines, initial seed, upper bound and lower bound :
          20           10   873654221        1278        1232
processing times :
186  98  132  69  182  111  81  23  123  134  74  163  95  198  102  175  53  183  116  187
174  42  142  62  143  78  59  49  87   176  98  174  208 134  75  135  134 123  148 115
114  92  83  184 201  98  168 123 86   184 203 103  94  115 89  199 95  197 39  156
192  36  101 123 186 138 153 26  189  186 128 123 185 162 165 86  75  159 64  167
48   38  89  103 176 86  146 186 96   68  201 187 187 76  42  197 178 184 78  99
32   119 123 164 195 72  48  134 187  164 185 64  164 186 76  211 146 156 186 184
71   41  145 145 118 32  103 65  74   184 86  21  39  69  197 98  134 76  76  79
123  79  201 181 169 113 58  164 156  35  95 126 36  45  64  68  158 135 59  196
191  29  134 84  54  41  99  124 164  79  201 168 97  26  139 164 184 94  34  168
172  31  56  179 45  132 166 56  84   85  184 39  142 95  88  113 61  154 39  37